data;

param n:=24;
param p:=3;
param r:=[1] 0 [2] 1 [3] 1 [4] 8 [5] 1 [6] 5 [7] 5 [8] 17 [9] 17 [10] 9 [11] 13 [12] 29 [13] 26 [14] 0 [15] 33 [16] 7 [17] 33 [18] 7 [19] 16 [20] 11 [21] 22 [22] 33 [23] 45 [24] 55 ;
param w:=[1] 21 [2] 91 [3] 28 [4] 50 [5] 52 [6] 62 [7] 70 [8] 19 [9] 77 [10] 100 [11] 70 [12] 61 [13] 78 [14] 46 [15] 31 [16] 29 [17] 51 [18] 8 [19] 4 [20] 69 [21] 32 [22] 61 [23] 83 [24] 50 ;

end;
